
Starting CP-SAT solver v9.15.6755
Parameters: random_seed: 2026073982 max_time_in_seconds: 2500 log_search_progress: true cp_model_presolve: true linearization_level: 2 num_search_workers: 4 cp_model_probing_level: 2 symmetry_level: 2

Initial satisfaction model '': (model_fingerprint: 0x362a11ae61bd0249)
#Variables: 724 (604 primary variables)
  - 724 Booleans in [0,1]
#kBoolAnd: 110 (#enforced: 110) (#literals: 330)
#kBoolOr: 110 (#enforced: 110) (#literals: 220)
#kExactlyOne: 87 (#literals: 261)
#kLinear1: 36 (#enforced: 6)
#kLinear2: 336 (#enforced: 336) (#complex_domain: 110)
#kLinear3: 1'600 (#enforced: 6)
#kLinearN: 1'132 (#enforced: 243) (#terms: 9'111)

Starting presolve at 0.00s
  7.15e-04s  0.00e+00d  [DetectDominanceRelations] 
  8.92e-03s  0.00e+00d  [PresolveToFixPoint] #num_loops=3 #num_dual_strengthening=1 
  3.76e-05s  0.00e+00d  [ExtractEncodingFromLinear] #potential_supersets=99 
  2.83e-04s  0.00e+00d  [DetectDuplicateColumns] 
  1.04e-04s  0.00e+00d  [DetectDuplicateConstraints] #duplicates=9 
[Symmetry] Graph for symmetry has 4'852 nodes and 15'584 arcs.
[Symmetry] Symmetry computation done. time: 0.00128305 dtime: 0.00180415
[SAT presolve] num removable Booleans: 220 / 620
[SAT presolve] num trivial clauses: 0
[SAT presolve] [0s] clauses:2'690 literals:7'328 vars:505 one_side_vars:65 simple_definition:1 singleton_clauses:0
[SAT presolve] [0.000241157s] clauses:2'689 literals:7'321 vars:505 one_side_vars:65 simple_definition:1 singleton_clauses:0
[SAT presolve] [0.000709008s] clauses:2'211 literals:6'532 vars:378 one_side_vars:68 simple_definition:73 singleton_clauses:0
  1.39e-04s  0.00e+00d  [DetectDuplicateConstraintsWithDifferentEnforcements] #without_enforcements=4 
  5.47e-03s  2.22e-03d  [Probe] #probed=1'287 #fixed_bools=11 #equiv=7 #new_binary_clauses=1'040 
  4.88e-04s  3.03e-04d  [MaxClique] Merged 577 constraints with 1'305 literals into 507 constraints with 1'190 literals
  9.39e-04s  0.00e+00d  [DetectDominanceRelations] 
  3.24e-03s  0.00e+00d  [PresolveToFixPoint] #num_loops=1 #num_dual_strengthening=1 
  1.25e-03s  0.00e+00d  [ProcessAtMostOneAndLinear] 
  1.03e-04s  0.00e+00d  [DetectDuplicateConstraints] #duplicates=5 
  9.72e-05s  0.00e+00d  [DetectDuplicateConstraintsWithDifferentEnforcements] 
  1.25e-03s  6.55e-05d  [DetectDominatedLinearConstraints] #relevant_constraints=826 #num_inclusions=347 #num_redundant=7 
  1.25e-04s  0.00e+00d  [DetectDifferentVariables] 
  8.23e-04s  8.21e-05d  [ProcessSetPPC] #relevant_constraints=2'965 #num_inclusions=77 
  2.95e-04s  3.34e-05d  [TransformClausesToExactlyOne] #num_amos=508 #num_clauses=1'650 #num_checked=1'650 
  4.99e-05s  0.00e+00d  [DetectEncodedComplexDomains] 
  3.06e-05s  9.00e-08d  [FindAlmostIdenticalLinearConstraints] #num_tested_pairs=1 
  9.74e-04s  1.35e-03d  [FindBigAtMostOneAndLinearOverlap] 
  1.50e-03s  1.20e-03d  [FindBigVerticalLinearOverlap] #blocks=2 #saved_nz=65 
  3.98e-04s  6.49e-04d  [FindBigHorizontalLinearOverlap] #linears=454 
  3.33e-04s  2.67e-05d  [MergeClauses] #num_collisions=21 #num_merges=21 #num_saved_literals=105 
  9.08e-04s  0.00e+00d  [DetectDominanceRelations] 
  3.12e-03s  0.00e+00d  [PresolveToFixPoint] #num_loops=2 #num_dual_strengthening=1 
  9.03e-04s  0.00e+00d  [DetectDominanceRelations] 
  3.08e-03s  0.00e+00d  [PresolveToFixPoint] #num_loops=1 #num_dual_strengthening=1 
  2.49e-04s  0.00e+00d  [DetectDuplicateColumns] 
  1.16e-04s  0.00e+00d  [DetectDuplicateConstraints] 
[Symmetry] Graph for symmetry has 4'280 nodes and 13'444 arcs.
[Symmetry] Symmetry computation done. time: 0.000990855 dtime: 0.00133103
[SAT presolve] num removable Booleans: 92 / 474
[SAT presolve] num trivial clauses: 0
[SAT presolve] [0s] clauses:2'098 literals:6'239 vars:448 one_side_vars:150 simple_definition:85 singleton_clauses:0
[SAT presolve] [0.000244482s] clauses:2'098 literals:6'066 vars:448 one_side_vars:195 simple_definition:67 singleton_clauses:0
[SAT presolve] [0.000340824s] clauses:2'083 literals:6'051 vars:442 one_side_vars:198 simple_definition:52 singleton_clauses:0
  1.86e-04s  0.00e+00d  [DetectDuplicateConstraintsWithDifferentEnforcements] 
  5.59e-03s  1.92e-03d  [Probe] #probed=1'276 #new_binary_clauses=664 
  4.26e-04s  3.16e-04d  [MaxClique] Merged 499 constraints with 1'107 literals into 491 constraints with 1'105 literals
  8.91e-04s  0.00e+00d  [DetectDominanceRelations] 
  3.07e-03s  0.00e+00d  [PresolveToFixPoint] #num_loops=1 #num_dual_strengthening=1 
  1.16e-03s  0.00e+00d  [ProcessAtMostOneAndLinear] 
  1.20e-04s  0.00e+00d  [DetectDuplicateConstraints] 
  8.79e-05s  0.00e+00d  [DetectDuplicateConstraintsWithDifferentEnforcements] 
  2.35e-03s  7.96e-05d  [DetectDominatedLinearConstraints] #relevant_constraints=819 #num_inclusions=414 
  1.31e-04s  0.00e+00d  [DetectDifferentVariables] 
  7.96e-04s  7.43e-05d  [ProcessSetPPC] #relevant_constraints=3'002 #num_inclusions=91 
  3.08e-04s  3.25e-05d  [TransformClausesToExactlyOne] #num_amos=493 #num_clauses=1'641 #num_checked=1'641 
  5.67e-05s  0.00e+00d  [DetectEncodedComplexDomains] 
  3.76e-05s  0.00e+00d  [FindAlmostIdenticalLinearConstraints] 
  9.52e-04s  1.26e-03d  [FindBigAtMostOneAndLinearOverlap] 
  1.43e-03s  1.13e-03d  [FindBigVerticalLinearOverlap] 
  3.81e-04s  6.49e-04d  [FindBigHorizontalLinearOverlap] #linears=454 
  3.59e-04s  2.58e-05d  [MergeClauses] #num_collisions=72 #num_merges=72 #num_saved_literals=218 
  9.11e-04s  0.00e+00d  [DetectDominanceRelations] 
  3.09e-03s  0.00e+00d  [PresolveToFixPoint] #num_loops=1 #num_dual_strengthening=1 
  9.02e-04s  0.00e+00d  [DetectDominanceRelations] 
  3.08e-03s  0.00e+00d  [PresolveToFixPoint] #num_loops=1 #num_dual_strengthening=1 
  1.94e-04s  0.00e+00d  [DetectDuplicateColumns] 
  9.01e-05s  0.00e+00d  [DetectDuplicateConstraints] 
[Symmetry] Graph for symmetry has 4'210 nodes and 13'101 arcs.
[Symmetry] Symmetry computation done. time: 0.000922724 dtime: 0.00129388
[SAT presolve] num removable Booleans: 86 / 468
[SAT presolve] num trivial clauses: 0
[SAT presolve] [0s] clauses:2'070 literals:6'021 vars:442 one_side_vars:198 simple_definition:52 singleton_clauses:0
[SAT presolve] [0.00020945s] clauses:2'070 literals:6'021 vars:442 one_side_vars:198 simple_definition:52 singleton_clauses:0
[SAT presolve] [0.000277941s] clauses:2'070 literals:6'021 vars:442 one_side_vars:198 simple_definition:52 singleton_clauses:0
  1.26e-04s  0.00e+00d  [DetectDuplicateConstraintsWithDifferentEnforcements] 
  5.40e-03s  1.92e-03d  [Probe] #probed=1'276 #new_binary_clauses=664 
  4.17e-04s  3.09e-04d  [MaxClique] 
  9.15e-04s  0.00e+00d  [DetectDominanceRelations] 
  3.09e-03s  0.00e+00d  [PresolveToFixPoint] #num_loops=1 #num_dual_strengthening=1 
  1.15e-03s  0.00e+00d  [ProcessAtMostOneAndLinear] 
  1.44e-04s  0.00e+00d  [DetectDuplicateConstraints] 
  9.28e-05s  0.00e+00d  [DetectDuplicateConstraintsWithDifferentEnforcements] 
  2.38e-03s  7.96e-05d  [DetectDominatedLinearConstraints] #relevant_constraints=819 #num_inclusions=414 
  1.31e-04s  0.00e+00d  [DetectDifferentVariables] 
  7.53e-04s  7.41e-05d  [ProcessSetPPC] #relevant_constraints=3'000 #num_inclusions=89 
  3.09e-04s  3.25e-05d  [TransformClausesToExactlyOne] #num_amos=489 #num_clauses=1'641 #num_checked=1'641 
  7.61e-05s  0.00e+00d  [DetectEncodedComplexDomains] 
  3.93e-05s  1.00e-07d  [FindAlmostIdenticalLinearConstraints] #num_tested_pairs=1 
  9.49e-04s  1.26e-03d  [FindBigAtMostOneAndLinearOverlap] 
  1.51e-03s  1.13e-03d  [FindBigVerticalLinearOverlap] #blocks=2 #saved_nz=223 
  3.94e-04s  6.49e-04d  [FindBigHorizontalLinearOverlap] #linears=455 
  3.44e-04s  2.58e-05d  [MergeClauses] #num_collisions=72 #num_merges=72 #num_saved_literals=218 
  9.20e-04s  0.00e+00d  [DetectDominanceRelations] 
  3.15e-03s  0.00e+00d  [PresolveToFixPoint] #num_loops=2 #num_dual_strengthening=1 
  2.09e-05s  0.00e+00d  [MergeNoOverlap] 
  3.07e-05s  0.00e+00d  [MergeNoOverlap2D] 

Presolve summary:
  - 35 affine relations were detected.
  - rule 'TODO dual: only one blocking constraint?' was applied 867 times.
  - rule 'TODO dual: tighten at most one' was applied 8 times.
  - rule 'TODO linear inclusion: superset is equality' was applied 263 times.
  - rule 'affine: new relation' was applied 35 times.
  - rule 'at_most_one: removed literals' was applied 63 times.
  - rule 'at_most_one: size one' was applied 62 times.
  - rule 'at_most_one: transformed into max clique' was applied 2 times.
  - rule 'bool_or: implications' was applied 56 times.
  - rule 'bool_or: only one literal' was applied 12 times.
  - rule 'bool_or: removed enforcement literal' was applied 557 times.
  - rule 'deductions: 776 stored' was applied 1 time.
  - rule 'duplicate: merged rhs of linear constraint' was applied 13 times.
  - rule 'duplicate: removed constraint' was applied 14 times.
  - rule 'duplicate: removed enforced constraint' was applied 4 times.
  - rule 'enforcement: false literal' was applied 38 times.
  - rule 'enforcement: true literal' was applied 12 times.
  - rule 'exactly_one: removed literals' was applied 30 times.
  - rule 'exactly_one: satisfied' was applied 7 times.
  - rule 'exactly_one: singleton' was applied 3 times.
  - rule 'exactly_one: size two' was applied 27 times.
  - rule 'exactly_one: x and not(x)' was applied 5 times.
  - rule 'incompatible linear: add implication' was applied 126 times.
  - rule 'linear + amo: empty after processing' was applied 5 times.
  - rule 'linear + amo: extracted enforcement literal' was applied 48 times.
  - rule 'linear + amo: trivial linear constraint' was applied 1 time.
  - rule 'linear inclusion: redundant containing constraint' was applied 3 times.
  - rule 'linear inclusion: redundant included constraint' was applied 3 times.
  - rule 'linear inclusion: sparsify superset' was applied 1 time.
  - rule 'linear matrix: common vertical rectangle' was applied 4 times.
  - rule 'linear1: always true' was applied 2 times.
  - rule 'linear1: x in domain' was applied 30 times.
  - rule 'linear2: convert ax + by != cte to clauses' was applied 240 times.
  - rule 'linear2: convert implied ax + by == cte to clauses' was applied 114 times.
  - rule 'linear2: implied ax + by = cte has only one solution' was applied 8 times.
  - rule 'linear: always true' was applied 433 times.
  - rule 'linear: coefficient strengthening by increasing it' was applied 2 times.
  - rule 'linear: empty' was applied 3 times.
  - rule 'linear: enforcement literal in expression' was applied 2 times.
  - rule 'linear: extracted at most one (max)' was applied 1 time.
  - rule 'linear: fixed or dup variables' was applied 881 times.
  - rule 'linear: negative clause' was applied 1'281 times.
  - rule 'linear: negative reified and' was applied 74 times.
  - rule 'linear: never in domain' was applied 5 times.
  - rule 'linear: positive at most one' was applied 48 times.
  - rule 'linear: positive equal one' was applied 1 time.
  - rule 'linear: reduced variable domains' was applied 5 times.
  - rule 'linear: remapped using affine relations' was applied 26 times.
  - rule 'presolve: 86 unused variables removed.' was applied 1 time.
  - rule 'presolve: iteration' was applied 3 times.
  - rule 'probing: bool_or reduced to implication' was applied 34 times.
  - rule 'probing: simplified clauses' was applied 16 times.
  - rule 'setppc: bool_or in at_most_one' was applied 6 times.
  - rule 'setppc: exactly_one included in linear' was applied 1 time.
  - rule 'setppc: reduced linear coefficients' was applied 1 time.
  - rule 'setppc: removed dominated constraints' was applied 87 times.
  - rule 'variables: both boolean and its negation fix the same variable' was applied 1 time.
  - rule 'variables: detect half reified value encoding' was applied 2 times.

Presolved satisfaction model '': (model_fingerprint: 0x2b3301ec903fb22)
#Variables: 471 (406 primary variables)
  - 468 Booleans in [0,1]
  - 2 in [0,2]
  - 1 in [0,8]
#kAtMostOne: 60 (#literals: 229)
#kBoolAnd: 260 (#enforced: 260) (#literals: 689)
#kBoolAndClauses: 72 (#enforced: 72 #multi: 72) (#literals: 362)
#kBoolOr: 1'497 (#literals: 4'583)
#kExactlyOne: 51 (#literals: 202)
#kLinearN: 820 (#enforced: 124) (#terms: 5'534)
[Symmetry] Graph for symmetry has 3'958 nodes and 12'879 arcs.
[Symmetry] Symmetry computation done. time: 0.000910166 dtime: 0.00125223

Preloading model.
#Model   0.10s var:471/471 constraints:2760/2760

Starting search at 0.10s with 4 workers.
3 full problem subsolvers: [default_lp, max_lp, no_lp]
1 first solution subsolver: [fj]
2 interleaved subsolvers: [feasibility_pump, rins/rens]
2 helper subsolvers: [neighborhood_helper, synchronization_agent]

#Model  23.62s var:470/471 constraints:2742/2760
#Model 115.88s var:469/471 constraints:2740/2760

Task timing                   n [     min,      max]      avg      dev     time         n [     min,      max]      avg      dev    dtime
        'default_lp':         1 [  41.66m,   41.66m]   41.66m   0.00ns   41.66m         2 [  2.16ms,   39.77m]   19.88m   19.88m   39.77m
  'feasibility_pump':     12389 [ 53.08us, 169.18ms]   1.64ms   1.55ms   20.37s     12387 [286.63us, 150.60ms] 301.40us   1.35ms    3.73s
                'fj':      9484 [100.83ms, 223.10ms] 130.64ms   8.25ms   20.65m      9484 [100.00ms, 100.17ms] 100.02ms  15.28us   15.81m
            'max_lp':         1 [  41.67m,   41.67m]   41.67m   0.00ns   41.67m         2 [ 92.29ms,   55.67m]   27.84m   27.84m   55.67m
             'no_lp':         1 [  41.67m,   41.67m]   41.67m   0.00ns   41.67m         2 [  1.78ms,    1.37h]   41.24m   41.24m    1.37h
         'rins/rens':     11366 [881.69us, 221.36ms] 109.00ms  39.61ms   20.65m     11361 [194.43us, 100.30ms]  68.77ms  36.71ms   13.02m

Search stats     Bools   Conflicts    Branches  Restarts  BacktrackToRoot   Backtrack     BoolPropag  IntegerPropag
  'default_lp':    468     214'691   7'756'553     1'434        1'188'969   1'706'567     75'481'644     95'022'540
      'max_lp':    468     107'959   9'864'294       575        1'487'424   1'949'625     94'163'539    122'697'354
       'no_lp':    468  21'030'729  27'934'580    73'719          508'056  21'353'306  1'738'366'142    433'990'576

SAT formula      Fixed  Equiv  Total  VarLeft  BinaryClauses  PermanentClauses  TemporaryClauses
  'default_lp':      2      1    468      465          2'570            45'494             7'959
      'max_lp':      2      1    468      465          2'570            44'372             9'168
       'no_lp':      2      1    468      465          2'570           135'424            10'460

SAT stats        ClassicMinim   LitRemoved  LitRemovedBinary   LitLearned  LitForgotten   Subsumed
  'default_lp':       185'950    2'196'526         1'243'474    6'472'194     4'348'217     76'676
      'max_lp':        92'705    1'113'961           529'430    2'830'976     1'712'808     33'799
       'no_lp':    18'947'194  329'385'145        89'300'011  502'780'183   390'688'365  6'017'867

Vivification       Clauses  Decisions  LitTrue  Subsumed  LitRemoved  DecisionReused  Conflicts
  'default_lp':  1'235'181  7'219'968        1     9'561     107'704         334'711        908
      'max_lp':  1'493'766  9'372'379        0    11'176     126'731         365'943        971
       'no_lp':    363'536  3'144'257        0    20'741     280'384          88'354        897

Clause deletion    at_true  l_and_not(l)  to_binary  sub_conflict  sub_extra  sub_decisions  sub_eager  sub_vivify  sub_probing  sub_inpro  blocked  eliminated   forgotten    promoted   conflicts
    'default_lp':      214             0          2        75'626        560          2'620      1'050       9'561          246      6'126        0           0     119'849     415'475     214'691
        'max_lp':      299             0          1        33'406        317            964        393      11'176          272      3'271        0           0      58'160     215'709     107'959
         'no_lp':      481             0          3     5'917'755     40'150        285'986    100'112      20'741          738    106'992        0           0  14'417'546  47'430'669  21'030'729

Lp stats         Component  Iterations  AddedCuts  OPTIMAL  DUAL_F.  DUAL_U.
  'default_lp':          1  28'341'559     98'785  320'619        0  185'377
      'max_lp':          1  15'772'826     74'944   37'272   91'705   37'118

Lp dimension        Final dimension of first component
  'default_lp':    376 rows, 342 columns, 8616 entries
      'max_lp':  1296 rows, 471 columns, 11429 entries

Lp debug         CutPropag  CutEqPropag   Adjust  Overflow        Bad  BadScaling
  'default_lp':          0           60  185'375         0  2'650'722           0
      'max_lp':          0           95   37'116         0  2'166'889           0

Lp pool          Constraints  Updates  Simplif  Merged  Shortened  Split  Strengthened       Cuts/Call
  'default_lp':       10'571   16'948        0       0         90      0             1  98'785/137'891
      'max_lp':       13'026   21'945        0       1         55      0         1'856  74'944/119'734

Lp Cut            default_lp  max_lp
          CG_FF:       1'704     130
           CG_K:         948      14
          CG_KL:         958       7
           CG_R:       1'847      79
          CG_RB:           6       6
         Clique:           -     125
             IB:          22       7
       MIR_1_FF:         789     733
        MIR_1_K:         157      30
       MIR_1_KL:         567      40
        MIR_1_R:         673     365
       MIR_1_RB:           5       -
      MIR_1_RLT:           -   7'756
       MIR_2_FF:         682     777
        MIR_2_K:         132     152
       MIR_2_KL:         391     114
        MIR_2_R:         736     710
       MIR_2_RB:           6       6
       MIR_3_FF:         288     205
        MIR_3_K:          38      25
       MIR_3_KL:         108      22
        MIR_3_R:         332     232
       MIR_3_RB:           3       4
      MIR_3_RBP:           2       3
       MIR_4_FF:         126      43
        MIR_4_K:          28      11
       MIR_4_KL:          55       8
        MIR_4_R:         219     184
       MIR_4_RB:           -       2
      MIR_4_RBP:           -       1
       MIR_5_FF:          36      22
        MIR_5_K:           6       4
       MIR_5_KL:           9       1
        MIR_5_R:         138     124
       MIR_5_RB:           1       1
      MIR_5_RBP:           -       1
       MIR_6_FF:          17      16
        MIR_6_K:          12       2
        MIR_6_R:          86     134
       MIR_6_RB:           5       -
      MIR_6_RBP:           1       1
   ZERO_HALF_FF:         356     544
    ZERO_HALF_K:          71       3
   ZERO_HALF_KL:         123       5
    ZERO_HALF_R:      87'058  62'264
   ZERO_HALF_RB:           -       4
  ZERO_HALF_RBP:          44      27

LNS stats       Improv/Calls  Closed  Difficulty  TimeLimit
  'rins/rens':   11362/11362     50%    7.61e-01       0.10

LS stats                                    Batches  Restarts/Perturbs    LinMoves   GenMoves  CompoundMoves  Bactracks  WeightUpdates  ScoreComputed
                             'fj_restart':      757                145  20'235'430          0              0          0     19'451'891     10'854'581
                    'fj_restart_compound':      434                128           0  4'436'155        297'724  2'068'990         10'234     74'255'412
                'fj_restart_compound_obj':      500                131           0  5'114'104        312'511  2'400'539         12'458     85'617'628
            'fj_restart_compound_perturb':      944                124           0  9'987'935        361'686  4'812'895         32'252    163'115'659
        'fj_restart_compound_perturb_obj':      631                112           0  6'607'411        279'490  3'163'760         19'701    108'811'373
                       'fj_restart_decay':      748                136  21'050'130          0              0          0        901'374      7'887'584
              'fj_restart_decay_compound':      534                114           0  6'154'642      1'005'210  2'574'410          6'676     92'555'071
          'fj_restart_decay_compound_obj':      765                130           0  8'970'751      1'455'222  3'757'455          9'477    132'874'249
      'fj_restart_decay_compound_perturb':      334                125           0  3'627'653        589'499  1'518'786          4'131     57'552'930
  'fj_restart_decay_compound_perturb_obj':      495                138           0  5'541'271        910'338  2'315'099          6'209     85'623'365
                   'fj_restart_decay_obj':      516                122  14'511'231          0              0          0        622'210      5'429'667
               'fj_restart_decay_perturb':      991                125  27'908'268          0              0          0      1'194'228     10'466'605
           'fj_restart_decay_perturb_obj':      335                139   9'408'520          0              0          0        404'238      3'508'434
                         'fj_restart_obj':      498                143  13'798'039          0              0          0     12'658'596      7'183'180
                     'fj_restart_perturb':      465                135  12'695'888          0              0          0     11'353'110      6'740'264
                 'fj_restart_perturb_obj':      537                125  14'637'702          0              0          0     13'353'939      7'566'346

Solution repositories    Added  Queried  Synchro
    'alternative_path':      0        0        0
      'best_solutions':      0        0        0
   'fj solution hints':  2'064        0    2'064
        'lp solutions':  1'243   11'366    1'237
                'pump':      0        0

Improving bounds shared    Num  Sym
            'default_lp':    2    0

Clauses shared    #Exported  #Imported  #BinaryRead  #BinaryTotal
   'default_lp':      1'841     52'925          349           349
       'max_lp':      2'121     52'120          349           349
        'no_lp':     52'386      4'112          349           349

LRAT_status: NA
CpSolverResponse summary:
status: UNKNOWN
objective: NA
best_bound: NA
integers: 355
booleans: 468
conflicts: 214691
branches: 7756553
propagations: 75481644
integer_propagations: 95022540
restarts: 1434
lp_iterations: 28341559
walltime: 2500.04
usertime: 2500.04
deterministic_time: 12409.1
gap_integral: 0

{
  "board_size": 22,
  "parity_proved": 0,
  "target": 34,
  "child_id": 1882,
  "child_count": 2640,
  "partition": "unknown_pair_x_diag_plus_twos_x_diag_minus_twos",
  "build_seconds": 0.0821847915649414,
  "workers": 4,
  "requested_seed": 2026073982,
  "effective_seed": 2026073982,
  "main_diagonal_pair": [
    4,
    14
  ],
  "pair_index": 81,
  "diag_plus_twos": 16,
  "diag_minus_twos": 16,
  "pair_excess": 10,
  "residual_certificate_slack": 102,
  "analytic_minimum_line_defect": 24,
  "analytic_defect_details": {
    "row_costs": {
      "12": 6,
      "13": 3,
      "14": 0,
      "15": 0,
      "16": 0,
      "17": 0
    },
    "column_costs": {
      "12": 6,
      "13": 3,
      "14": 0,
      "15": 0,
      "16": 0,
      "17": 0
    },
    "plus_cost": 24,
    "minus_cost": 0,
    "row_column_minimum": 0
  },
  "maximal_line_constraints": 2455,
  "analytic_infeasible": false,
  "allowed_points": 242,
  "status": "UNKNOWN",
  "proof_method": "cp_sat_all_lines_with_certificate_profile_cuts",
  "elapsed_seconds": 2500.0361189842224,
  "branches": 7756553,
  "conflicts": 214691
}
